p wcnf 191 382 383 
1 -7 -162 0 
1 43 -191 0 
1 -114 130 0 
1 -24 -160 0 
1 110 80 0 
1 17 -176 0 
1 187 32 0 
1 -21 11 0 
1 -160 70 0 
1 112 -154 0 
1 -52 98 0 
1 -137 -190 0 
1 131 -30 0 
1 49 13 0 
1 -1 101 0 
1 -51 159 0 
1 28 -83 0 
1 176 -113 0 
1 153 -162 0 
1 -73 -108 0 
1 -18 -129 0 
1 9 -133 0 
1 39 -56 0 
1 40 -170 0 
1 -45 -188 0 
1 -73 33 0 
1 -61 -23 0 
1 -73 106 0 
1 -167 -86 0 
1 130 138 0 
1 58 -142 0 
1 169 -12 0 
1 44 -135 0 
1 -16 -154 0 
1 -186 93 0 
1 96 35 0 
1 129 -115 0 
1 -18 187 0 
1 113 -66 0 
1 -188 174 0 
1 33 124 0 
1 44 186 0 
1 -149 2 0 
1 -108 -183 0 
1 -173 -176 0 
1 143 -74 0 
1 191 -170 0 
1 -25 -167 0 
1 -50 -166 0 
1 -156 46 0 
1 140 -57 0 
1 -105 -149 0 
1 -41 -5 0 
1 157 117 0 
1 -181 65 0 
1 -5 44 0 
1 -2 -100 0 
1 -96 -155 0 
1 168 108 0 
1 108 -143 0 
1 -160 25 0 
1 171 -142 0 
1 125 22 0 
1 186 90 0 
1 13 71 0 
1 48 -132 0 
1 130 -154 0 
1 84 26 0 
1 -57 -92 0 
1 13 -107 0 
1 6 98 0 
1 -99 55 0 
1 -185 -88 0 
1 32 190 0 
1 115 -70 0 
1 -78 -177 0 
1 117 -83 0 
1 43 89 0 
1 -12 -66 0 
1 142 -139 0 
1 146 -63 0 
1 71 152 0 
1 -41 -29 0 
1 181 -183 0 
1 104 134 0 
1 4 -79 0 
1 -116 -53 0 
1 181 -144 0 
1 55 19 0 
1 9 -112 0 
1 168 26 0 
1 104 8 0 
1 3 -153 0 
1 187 76 0 
1 164 95 0 
1 -141 -52 0 
1 180 15 0 
1 -147 -42 0 
1 170 -49 0 
1 -37 2 0 
1 -107 66 0 
1 -116 189 0 
1 -54 -11 0 
1 -42 5 0 
1 162 48 0 
1 13 107 0 
1 -112 15 0 
1 -68 82 0 
1 -8 -191 0 
1 107 174 0 
1 -47 -124 0 
1 -72 85 0 
1 -74 119 0 
1 12 146 0 
1 -179 -58 0 
1 64 -173 0 
1 -168 167 0 
1 -78 59 0 
1 -73 138 0 
1 46 96 0 
1 -71 151 0 
1 -30 -108 0 
1 79 -71 0 
1 -87 -133 0 
1 44 -5 0 
1 -146 139 0 
1 -172 -186 0 
1 -88 147 0 
1 -151 -19 0 
1 -92 73 0 
1 -75 73 0 
1 -96 19 0 
1 -40 -115 0 
1 -96 42 0 
1 -78 -5 0 
1 -123 -164 0 
1 -11 -14 0 
1 32 -30 0 
1 29 -72 0 
1 84 -138 0 
1 173 105 0 
1 -176 -9 0 
1 -103 -156 0 
1 -12 82 0 
1 -18 117 0 
1 -81 7 0 
1 -155 31 0 
1 8 -101 0 
1 64 137 0 
1 -87 113 0 
1 -133 -79 0 
1 -11 -20 0 
1 133 54 0 
1 -132 -73 0 
1 -71 103 0 
1 173 166 0 
1 32 -5 0 
1 142 -180 0 
1 -35 -136 0 
1 106 -61 0 
1 -137 57 0 
1 42 152 0 
1 -44 161 0 
1 -177 -22 0 
1 -172 -112 0 
1 180 42 0 
1 -82 111 0 
1 -185 -109 0 
1 -37 30 0 
1 54 58 0 
1 42 -182 0 
1 -161 149 0 
1 -144 155 0 
1 142 -23 0 
1 34 105 0 
1 13 61 0 
1 -101 69 0 
1 -103 183 0 
1 107 23 0 
1 -16 38 0 
1 -89 128 0 
1 -133 -4 0 
1 102 96 0 
1 -85 -82 0 
1 127 -175 0 
1 -128 -94 0 
1 107 -138 0 
1 -149 132 0 
1 104 -157 0 
1 -54 -96 0 
1 172 2 0 
1 8 54 0 
1 84 -3 0 
1 -19 160 0 
1 -171 19 0 
1 16 155 0 
1 70 73 0 
1 -42 -89 0 
1 -9 138 0 
1 -73 138 0 
1 107 -158 0 
1 -147 -2 0 
1 92 -148 0 
1 110 79 0 
1 28 51 0 
1 -15 51 0 
1 191 156 0 
1 5 69 0 
1 -127 -184 0 
1 54 124 0 
1 63 -140 0 
1 -160 188 0 
1 31 5 0 
1 -94 182 0 
1 40 -17 0 
1 16 62 0 
1 -36 -110 0 
1 152 149 0 
1 190 -165 0 
1 -157 -33 0 
1 86 -156 0 
1 44 179 0 
1 -136 135 0 
1 184 -120 0 
1 107 -165 0 
1 118 139 0 
1 -102 -138 0 
1 142 -114 0 
1 -2 -85 0 
1 -77 98 0 
1 152 87 0 
1 107 -31 0 
1 -18 -123 0 
1 115 -190 0 
1 -19 107 0 
1 56 -32 0 
1 -13 -138 0 
1 4 124 0 
1 -179 164 0 
1 24 -156 0 
1 -3 -30 0 
1 25 142 0 
1 -80 9 0 
1 75 84 0 
1 -67 26 0 
1 75 86 0 
1 116 -144 0 
1 -85 -60 0 
1 -84 48 0 
1 -172 -124 0 
1 130 12 0 
1 44 -15 0 
1 -157 84 0 
1 -98 -5 0 
1 114 112 0 
1 -83 49 0 
1 101 -86 0 
1 -28 -100 0 
1 93 151 0 
1 52 -27 0 
1 185 -123 0 
1 34 85 0 
1 9 167 0 
1 41 2 0 
1 -43 -42 0 
1 186 78 0 
1 175 139 0 
1 -25 -136 0 
1 -93 -85 0 
1 4 -120 0 
1 -81 -54 0 
1 -145 -45 0 
1 -20 178 0 
1 -64 27 0 
1 -151 -105 0 
1 -82 -18 0 
1 75 181 0 
1 25 -39 0 
1 128 191 0 
1 47 -91 0 
1 9 -165 0 
1 154 50 0 
1 157 60 0 
1 160 141 0 
1 79 -113 0 
1 61 146 0 
1 -125 -114 0 
1 2 156 0 
1 33 -74 0 
1 75 -19 0 
1 -145 141 0 
1 -108 -7 0 
1 -101 152 0 
1 61 71 0 
1 -171 -133 0 
1 32 136 0 
1 111 148 0 
1 160 122 0 
1 106 -75 0 
1 93 -66 0 
1 -141 87 0 
1 12 143 0 
1 -85 176 0 
1 105 35 0 
1 95 -191 0 
1 138 -90 0 
1 -159 5 0 
1 -5 82 0 
1 47 -72 0 
1 -85 190 0 
1 -176 -7 0 
1 81 84 0 
1 -156 56 0 
1 53 -71 0 
1 -161 -81 0 
1 6 26 0 
1 107 84 0 
1 170 -139 0 
1 -68 158 0 
1 -62 60 0 
1 -22 -160 0 
1 -45 81 0 
1 -162 30 0 
1 86 -128 0 
1 138 -93 0 
1 -82 -180 0 
1 -124 -119 0 
1 105 -139 0 
1 1 -162 0 
1 -47 18 0 
1 -154 -131 0 
1 -139 -110 0 
1 -26 -113 0 
1 -91 -128 0 
1 -58 -39 0 
1 176 2 0 
1 177 60 0 
1 -139 -107 0 
1 -125 -88 0 
1 -71 -87 0 
1 -66 31 0 
1 89 -91 0 
1 72 16 0 
1 -23 167 0 
1 -41 150 0 
1 -126 -93 0 
1 -107 -161 0 
1 -125 106 0 
1 152 157 0 
1 187 -149 0 
1 -130 159 0 
1 -146 66 0 
1 -66 92 0 
1 85 76 0 
1 -32 -29 0 
1 97 166 0 
1 160 65 0 
1 40 -110 0 
1 23 -114 0 
1 159 -146 0 
1 15 -160 0 
1 168 122 0 
1 -67 36 0 
1 -180 -96 0 
1 136 -188 0 
1 -165 -119 0 
1 73 105 0 
1 -104 -190 0 
1 129 -90 0 
1 -126 -173 0 
1 58 54 0 
1 -143 -131 0 
1 -35 46 0 
1 -10 -106 0 
1 144 -166 0 
1 187 -93 0 
1 -139 85 0 
1 -76 -12 0 
1 155 -38 0 
1 33 134 0 
1 -35 -88 0 
1 -13 121 0 
